Version identifier: 20.1.0.0 | 2020-11-10 | 9bedb6d68
CPXPARAM_Threads                                 1
CPXPARAM_TimeLimit                               7200
CPXPARAM_MIP_Tolerances_MIPGap                   0
Generic callback                                 0x60
1 of 1 MIP starts provided solutions.
MIP start 'm1' defined initial solution with objective 2231.7679.
Tried aggregator 1 time.
Reduced MIP has 1001001 rows, 1001001 columns, and 3001000 nonzeros.
Reduced MIP has 1000 binaries, 0 generals, 0 SOSs, and 0 indicators.
Presolve time = 0.93 sec. (798.63 ticks)
Probing time = 0.13 sec. (125.04 ticks)
Tried aggregator 1 time.
Reduced MIP has 1001001 rows, 1001001 columns, and 3001000 nonzeros.
Reduced MIP has 1000 binaries, 0 generals, 0 SOSs, and 0 indicators.
Presolve time = 0.90 sec. (782.41 ticks)
Probing time = 0.12 sec. (125.04 ticks)
MIP emphasis: balance optimality and feasibility.
MIP search method: dynamic search.
Parallel mode: none, using 1 thread.
Root relaxation solution time = 0.32 sec. (385.37 ticks)

        Nodes                                         Cuts/
   Node  Left     Objective  IInf  Best Integer    Best Bound    ItCnt     Gap

*     0+    0                         2231.7679     5432.0000           143.39%
      0     0     2474.4429    10     2231.7679     5432.0000        0  143.39%
      0     2     2474.4429    10     2231.7679     2474.4429        0   10.87%
Elapsed time = 943.02 sec. (980098.50 ticks, tree = 0.01 MB, solutions = 1)
*     1     1      integral     0     2240.5122     2474.4429       10   10.44%
      2     0        cutoff           2240.5122     2240.5122     7924    0.00%

User cuts applied:  2

Root node processing (before b&c):
  Real time             =  942.99 sec. (980075.69 ticks)
Sequential b&c:
  Real time             =   97.37 sec. (61623.40 ticks)
                          ------------
Total (root+branch&cut) = 1040.36 sec. (1041699.08 ticks)
@Parameters: 
is_S_cut                                true
is_add_all_yinF                         true
is_start_value                          true
is_usercut                              true
is_visualization                        false
uc_only_rootnode                        false

data                                    Qi
fn                                      data/Qi/instance_1000_1000.csv
mode                                    ZLP
solver                                  cplex

p                                       5
r                                       10

EPS                                     1.0e-06
EPS_vio                                 1.0e-04
beta                                    0.10
gap                                     0.00
nodelimit                               Inf
timelimit                               7200.00


@PrintInfos
ItCnt: 7924
Current gap: 0.00 %
Termination Status: OPTIMAL
Primal Status: FEASIBLE_POINT
Solve Time: 1040.36 sec
Objective Value: 2240.512171
Number of Nodes:      3

CutInfo: [phase] num / time (sec) 
ZLP             [phase1]     0 / 0.00 [rLC]     2 / 19.72 [rUC]     2 / 7.90 [sLC]     1 / 6.35 [sUC]     0 / 0.00 
OldSubmodular   [phase1]     0 / 0.00 [rLC]     0 / 0.00 [rUC]     0 / 0.00 [sLC]     0 / 0.00 [sUC]     0 / 0.00 
NewSubmodular   [phase1]     0 / 0.00 [rLC]     0 / 0.00 [rUC]     0 / 0.00 [sLC]     0 / 0.00 [sUC]     0 / 0.00 
PMP             [phase1]     0 / 0.00 [rLC]     3 / 15.95 [rUC]     2 / 5.16 [sLC]     2 / 4.73 [sUC]     0 / 0.00 
Separation Round: [phase1] 0  [rLC] 3  [rUC] 2  [sLC] 2  [sUC] 0
Root Best Bound 2240.512171
Root Best Integer: 2240.512171
Best Bound: 2240.512171
Best Integer: 2240.512171

